\ENCODING=ISO-8859-1
\Problem name: IloCplex

Maximize
 obj: 891 vnp2 - 182 (π,ρ)0↑e7 - 112 (π,ρ)1↑e7
      - 128 (π,ρ)2↑e7 - 148 (π,ρ)3↑e7
      - 212 (π,ρ)4↑e7 - 148 (π,ρ)5↑e7
      - 252 (π,ρ)6↑e7 - 184 (π,ρ)7↑e7
      - 296 (π,ρ)8↑e7 - 180 (π,ρ)9↑e7
      - 264 (π,ρ)10↑e7 - 164 (π,ρ)11↑e7
      - 230 (π,ρ)12↑e7 - 219 (π,ρ)13↑e7
      - 160 (π,ρ)14↑e7 - 38 (π,ρ)15↑e8
      - 22 (π,ρ)16↑e9 - 22 (π,ρ)17↑e9
      - 38 (π,ρ)18↑e9 - 38 (π,ρ)19↑e9
      - 26 (π,ρ)20↑e9 - 42 (π,ρ)21↑e9
      - 69 (π,ρ)22↑e9 - 54 (π,ρ)23↑e9
      - 50 (π,ρ)24↑e9 - 43 (π,ρ)25↑e9
      - 43 (π,ρ)26↑e9 - 47 (π,ρ)27↑e9
      - 50 (π,ρ)28↑e9 - 60 (π,ρ)29↑e9
      - 45 (π,ρ)30↑e9 - 113 (π,ρ)31↑e10
      - 76 (π,ρ)32↑e11 + 820 vnp4 - 235 (π,ρ)33↑e17
      - 159 (π,ρ)34↑e17 - 159 (π,ρ)35↑e17
      - 211 (π,ρ)36↑e17 - 211 (π,ρ)37↑e17
      - 204 (π,ρ)38↑e17 - 191 (π,ρ)39↑e17
      - 211 (π,ρ)40↑e17 - 278 (π,ρ)41↑e17
      - 220 (π,ρ)42↑e17 - 220 (π,ρ)43↑e17
      - 339 (π,ρ)44↑e17 - 115 (π,ρ)45↑e17
      - 174 (π,ρ)46↑e17 - 133 (π,ρ)47↑e17
      - 16 (π,ρ)48↑e18 - 600047 (π,ρ)49↑e19
      - 34 (π,ρ)50↑e20 - 23 (π,ρ)51↑e20
      - 23 (π,ρ)52↑e20 - 41 (π,ρ)53↑e20
      - 45 (π,ρ)54↑e20 - 41 (π,ρ)55↑e20
      - 25 (π,ρ)56↑e20 - 25 (π,ρ)57↑e20
      - 29 (π,ρ)58↑e20 - 31 (π,ρ)59↑e20
      - 32 (π,ρ)60↑e20 - 32 (π,ρ)61↑e20
      - 28 (π,ρ)62↑e20 - 33 (π,ρ)63↑e20
      - 27 (π,ρ)64↑e20 - 62 (π,ρ)65↑e21
      - 80 (π,ρ)66↑e21 - 62 (π,ρ)67↑e21
      - 22 (π,ρ)68↑e21 - 34 (π,ρ)69↑e21
      - 22 (π,ρ)70↑e21 - 78 (π,ρ)71↑e21
      - 112 (π,ρ)72↑e21 - 122 (π,ρ)73↑e21
      - 58 (π,ρ)74↑e21 - 70 (π,ρ)75↑e21
      - 58 (π,ρ)76↑e21 - 600078 (π,ρ)77↑e21
      - 600104 (π,ρ)78↑e21 - 600088 (π,ρ)79↑e21
      - 29 (π,ρ)80↑e22 - 18 (π,ρ)81↑e22
      - 23 (π,ρ)82↑e22 - 27 (π,ρ)83↑e22
      - 27 (π,ρ)84↑e22 - 42 (π,ρ)85↑e22
      - 27 (π,ρ)86↑e22 - 47 (π,ρ)87↑e22
      - 41 (π,ρ)88↑e22 - 49 (π,ρ)89↑e22
      - 19 (π,ρ)90↑e22 - 19 (π,ρ)91↑e22
      - 19 (π,ρ)92↑e22
Subject To
 _EmbdConstr_vnp2e7#0:   vnp2 - (π,ρ)0↑e7 - (π,ρ)1↑e7
                         - (π,ρ)2↑e7 - (π,ρ)3↑e7
                         - (π,ρ)4↑e7 - (π,ρ)5↑e7
                         - (π,ρ)6↑e7 - (π,ρ)7↑e7
                         - (π,ρ)8↑e7 - (π,ρ)9↑e7
                         - (π,ρ)10↑e7 - (π,ρ)11↑e7
                         - (π,ρ)12↑e7 - (π,ρ)13↑e7
                         - (π,ρ)14↑e7  = 0
 _EmbdConstr_vnp2e8#1:   vnp2 - (π,ρ)15↑e8  = 0
 _EmbdConstr_vnp2e9#2:   vnp2 - (π,ρ)16↑e9 - (π,ρ)17↑e9
                         - (π,ρ)18↑e9 - (π,ρ)19↑e9
                         - (π,ρ)20↑e9 - (π,ρ)21↑e9
                         - (π,ρ)22↑e9 - (π,ρ)23↑e9
                         - (π,ρ)24↑e9 - (π,ρ)25↑e9
                         - (π,ρ)26↑e9 - (π,ρ)27↑e9
                         - (π,ρ)28↑e9 - (π,ρ)29↑e9
                         - (π,ρ)30↑e9  = 0
 _EmbdConstr_vnp2e10#3:  vnp2 - (π,ρ)31↑e10  = 0
 _EmbdConstr_vnp2e11#4:  vnp2 - (π,ρ)32↑e11  = 0
 _EmbdConstr_vnp4e17#5:  vnp4 - (π,ρ)33↑e17 - (π,ρ)34↑e17
                         - (π,ρ)35↑e17 - (π,ρ)36↑e17
                         - (π,ρ)37↑e17 - (π,ρ)38↑e17
                         - (π,ρ)39↑e17 - (π,ρ)40↑e17
                         - (π,ρ)41↑e17 - (π,ρ)42↑e17
                         - (π,ρ)43↑e17 - (π,ρ)44↑e17
                         - (π,ρ)45↑e17 - (π,ρ)46↑e17
                         - (π,ρ)47↑e17  = 0
 _EmbdConstr_vnp4e18#6:  vnp4 - (π,ρ)48↑e18  = 0
 _EmbdConstr_vnp4e19#7:  vnp4 - (π,ρ)49↑e19  = 0
 _EmbdConstr_vnp4e20#8:  vnp4 - (π,ρ)50↑e20 - (π,ρ)51↑e20
                         - (π,ρ)52↑e20 - (π,ρ)53↑e20
                         - (π,ρ)54↑e20 - (π,ρ)55↑e20
                         - (π,ρ)56↑e20 - (π,ρ)57↑e20
                         - (π,ρ)58↑e20 - (π,ρ)59↑e20
                         - (π,ρ)60↑e20 - (π,ρ)61↑e20
                         - (π,ρ)62↑e20 - (π,ρ)63↑e20
                         - (π,ρ)64↑e20  = 0
 _EmbdConstr_vnp4e21#9:  vnp4 - (π,ρ)65↑e21 - (π,ρ)66↑e21
                         - (π,ρ)67↑e21 - (π,ρ)68↑e21
                         - (π,ρ)69↑e21 - (π,ρ)70↑e21
                         - (π,ρ)71↑e21 - (π,ρ)72↑e21
                         - (π,ρ)73↑e21 - (π,ρ)74↑e21
                         - (π,ρ)75↑e21 - (π,ρ)76↑e21
                         - (π,ρ)77↑e21 - (π,ρ)78↑e21
                         - (π,ρ)79↑e21  = 0
 _EmbdConstr_vnp4e22#10: vnp4 - (π,ρ)80↑e22 - (π,ρ)81↑e22
                         - (π,ρ)82↑e22 - (π,ρ)83↑e22
                         - (π,ρ)84↑e22 - (π,ρ)85↑e22
                         - (π,ρ)86↑e22 - (π,ρ)87↑e22
                         - (π,ρ)88↑e22 - (π,ρ)89↑e22
                         - (π,ρ)90↑e22 - (π,ρ)91↑e22
                         - (π,ρ)92↑e22  = 0
 BwCapConstr_slink3#11:  (π,ρ)0↑e7 + 4 (π,ρ)3↑e7
                         + 4 (π,ρ)4↑e7 + 4 (π,ρ)5↑e7
                         + 4 (π,ρ)8↑e7 + 4 (π,ρ)10↑e7
                         + (π,ρ)12↑e7 + (π,ρ)16↑e9
                         + (π,ρ)17↑e9 + (π,ρ)18↑e9
                         + (π,ρ)19↑e9 + (π,ρ)21↑e9
                         + (π,ρ)22↑e9 + (π,ρ)25↑e9
                         + (π,ρ)28↑e9 + (π,ρ)30↑e9 <= 8
 BwCapConstr_slink5#12:  4 (π,ρ)8↑e7 + (π,ρ)22↑e9 <= 13
 BwCapConstr_slink6#13:  4 (π,ρ)8↑e7 + (π,ρ)22↑e9
                         + 4 (π,ρ)33↑e17 <= 11
 BwCapConstr_slink7#14:  4 (π,ρ)0↑e7 + 4 (π,ρ)3↑e7
                         + 4 (π,ρ)4↑e7 + 4 (π,ρ)5↑e7
                         + 4 (π,ρ)6↑e7 + 4 (π,ρ)7↑e7
                         + 4 (π,ρ)8↑e7 + 4 (π,ρ)10↑e7
                         + 4 (π,ρ)12↑e7 + (π,ρ)16↑e9
                         + (π,ρ)17↑e9 + (π,ρ)18↑e9
                         + (π,ρ)22↑e9 + (π,ρ)23↑e9
                         + (π,ρ)24↑e9 <= 11
 BwCapConstr_slink8#15:  4 (π,ρ)6↑e7 + 4 (π,ρ)7↑e7
                         + 4 (π,ρ)8↑e7 + (π,ρ)22↑e9
                         + (π,ρ)23↑e9 + (π,ρ)24↑e9
                         + 4 (π,ρ)32↑e11 <= 3
 BwCapConstr_slink9#16:  4 (π,ρ)0↑e7 + 4 (π,ρ)1↑e7
                         + 4 (π,ρ)2↑e7 + 4 (π,ρ)6↑e7
                         + 4 (π,ρ)7↑e7 + 4 (π,ρ)9↑e7
                         + 4 (π,ρ)10↑e7 + 4 (π,ρ)11↑e7
                         + 4 (π,ρ)13↑e7 + (π,ρ)19↑e9
                         + (π,ρ)20↑e9 + (π,ρ)21↑e9
                         + (π,ρ)23↑e9 + (π,ρ)25↑e9
                         + (π,ρ)26↑e9 + (π,ρ)27↑e9
                         + (π,ρ)29↑e9 + 4 (π,ρ)32↑e11
                         <= 12
 BwCapConstr_slink10#17: 4 (π,ρ)6↑e7 + (π,ρ)13↑e7
                         + 2 (π,ρ)15↑e8 + (π,ρ)18↑e9
                         + (π,ρ)19↑e9 + (π,ρ)20↑e9
                         + (π,ρ)21↑e9 + (π,ρ)22↑e9
                         + (π,ρ)23↑e9 + (π,ρ)24↑e9
                         + (π,ρ)26↑e9 + (π,ρ)27↑e9
                         + (π,ρ)28↑e9 + (π,ρ)29↑e9
                         + (π,ρ)30↑e9 <= 17
 BwCapConstr_slink11#18: 4 (π,ρ)0↑e7 + 4 (π,ρ)3↑e7
                         + 4 (π,ρ)4↑e7 + 4 (π,ρ)5↑e7
                         + 4 (π,ρ)8↑e7 + 4 (π,ρ)10↑e7
                         + 4 (π,ρ)12↑e7 + 4 (π,ρ)13↑e7
                         + (π,ρ)25↑e9 + (π,ρ)26↑e9
                         + (π,ρ)27↑e9 + (π,ρ)29↑e9
                         + 5 (π,ρ)31↑e10 <= 11
 BwCapConstr_slink12#19: 4 (π,ρ)12↑e7 + 4 (π,ρ)13↑e7
                         + 4 (π,ρ)14↑e7 + (π,ρ)28↑e9
                         + (π,ρ)29↑e9 + (π,ρ)30↑e9 <= 7
 BwCapConstr_slink13#20: (π,ρ)24↑e9 + (π,ρ)37↑e17
                         + 4 (π,ρ)41↑e17 + 4 (π,ρ)44↑e17
                         <= 8
 BwCapConstr_slink14#21: (π,ρ)24↑e9 <= 16
 BwCapConstr_slink15#22: <= 6
 BwCapConstr_slink16#23: 5 (π,ρ)44↑e17 + (π,ρ)89↑e22 <= 1
 BwCapConstr_slink18#24: (π,ρ)33↑e17 + (π,ρ)34↑e17
                         + (π,ρ)35↑e17 + (π,ρ)37↑e17
                         + (π,ρ)38↑e17 + 4 (π,ρ)41↑e17
                         + 4 (π,ρ)44↑e17 + (π,ρ)53↑e20
                         + (π,ρ)54↑e20 + (π,ρ)55↑e20
                         + 2 (π,ρ)72↑e21 + (π,ρ)82↑e22
                         + (π,ρ)83↑e22 + (π,ρ)84↑e22
                         + (π,ρ)87↑e22 <= 5
 BwCapConstr_slink19#25: 5 (π,ρ)39↑e17 + 5 (π,ρ)40↑e17
                         + 5 (π,ρ)41↑e17 + 5 (π,ρ)45↑e17
                         + 5 (π,ρ)46↑e17 + 5 (π,ρ)47↑e17
                         + (π,ρ)58↑e20 + (π,ρ)59↑e20
                         + (π,ρ)60↑e20 + (π,ρ)61↑e20
                         + (π,ρ)62↑e20 + (π,ρ)63↑e20
                         + (π,ρ)64↑e20 + 2 (π,ρ)69↑e21
                         + 2 (π,ρ)75↑e21 + 2 (π,ρ)79↑e21
                         + (π,ρ)85↑e22 + (π,ρ)86↑e22
                         + (π,ρ)89↑e22 <= 2
 BwCapConstr_slink20#26: 2 (π,ρ)78↑e21 <= 3
 BwCapConstr_slink21#27: 3 (π,ρ)36↑e17 + 5 (π,ρ)39↑e17
                         + 5 (π,ρ)40↑e17 + 5 (π,ρ)41↑e17
                         + 5 (π,ρ)42↑e17 + 5 (π,ρ)43↑e17
                         + 5 (π,ρ)44↑e17 + 2 (π,ρ)47↑e17
                         + (π,ρ)59↑e20 + (π,ρ)60↑e20
                         + (π,ρ)61↑e20 + 2 (π,ρ)66↑e21
                         + 2 (π,ρ)71↑e21 + 2 (π,ρ)72↑e21
                         + 2 (π,ρ)73↑e21 + (π,ρ)85↑e22
                         + (π,ρ)86↑e22 <= 2
 BwCapConstr_slink22#28: 4 (π,ρ)12↑e7 + 4 (π,ρ)13↑e7
                         + 4 (π,ρ)14↑e7 + (π,ρ)28↑e9
                         + (π,ρ)29↑e9 + (π,ρ)30↑e9
                         + 5 (π,ρ)45↑e17 + 5 (π,ρ)46↑e17
                         + 5 (π,ρ)47↑e17 <= 1
 BwCapConstr_slink23#29: 5 (π,ρ)36↑e17 + 5 (π,ρ)42↑e17
                         + 5 (π,ρ)43↑e17 + 5 (π,ρ)44↑e17
                         + 5 (π,ρ)47↑e17 + (π,ρ)62↑e20
                         + (π,ρ)63↑e20 + (π,ρ)64↑e20
                         + 2 (π,ρ)71↑e21 + 2 (π,ρ)72↑e21
                         + 2 (π,ρ)73↑e21 <= 0
 BwCapConstr_slink24#30: 5 (π,ρ)33↑e17 + 5 (π,ρ)34↑e17
                         + 5 (π,ρ)35↑e17 + 5 (π,ρ)37↑e17
                         + 5 (π,ρ)38↑e17 + 5 (π,ρ)40↑e17
                         + 4 (π,ρ)41↑e17 + 5 (π,ρ)44↑e17
                         + 5 (π,ρ)45↑e17 + 5 (π,ρ)46↑e17
                         + 5 (π,ρ)47↑e17
                         + 100000 (π,ρ)77↑e21
                         + 100000 (π,ρ)78↑e21
                         + 100000 (π,ρ)79↑e21 <= 16
 BwCapConstr_slink25#31: 4 (π,ρ)9↑e7 + 4 (π,ρ)10↑e7
                         + 4 (π,ρ)11↑e7 + 4 (π,ρ)14↑e7
                         <= 5
 BwCapConstr_slink26#32: 4 (π,ρ)0↑e7 + 4 (π,ρ)1↑e7
                         + 4 (π,ρ)2↑e7 + 4 (π,ρ)4↑e7
                         + 4 (π,ρ)6↑e7 + 4 (π,ρ)7↑e7
                         + 4 (π,ρ)8↑e7 + 4 (π,ρ)9↑e7
                         + 4 (π,ρ)11↑e7 + 4 (π,ρ)12↑e7
                         + 4 (π,ρ)13↑e7 + 4 (π,ρ)14↑e7
                         + (π,ρ)25↑e9 + (π,ρ)26↑e9
                         + (π,ρ)27↑e9 + 2 (π,ρ)31↑e10
                         <= 0
 BwCapConstr_slink27#33: 4 (π,ρ)1↑e7 + 4 (π,ρ)2↑e7
                         + 4 (π,ρ)9↑e7 + 4 (π,ρ)10↑e7
                         + 4 (π,ρ)11↑e7 + 4 (π,ρ)14↑e7
                         <= 7
 BwCapConstr_slink28#34: 5 (π,ρ)39↑e17 + (π,ρ)48↑e18
                         + 2 (π,ρ)74↑e21 + 2 (π,ρ)75↑e21
                         + 2 (π,ρ)76↑e21 <= 10
 BwCapConstr_slink29#35: 5 (π,ρ)36↑e17 + 5 (π,ρ)37↑e17
                         + 5 (π,ρ)38↑e17 + 3 (π,ρ)48↑e18
                         + (π,ρ)51↑e20 + (π,ρ)53↑e20
                         + (π,ρ)54↑e20 + (π,ρ)56↑e20
                         + (π,ρ)57↑e20 + (π,ρ)60↑e20
                         + (π,ρ)62↑e20 + (π,ρ)63↑e20
                         + (π,ρ)64↑e20 + 2 (π,ρ)68↑e21
                         + 2 (π,ρ)69↑e21 + 2 (π,ρ)70↑e21
                         <= 0
 BwCapConstr_slink30#36: 5 (π,ρ)33↑e17 + 5 (π,ρ)34↑e17
                         + 5 (π,ρ)35↑e17 + 5 (π,ρ)39↑e17
                         + 5 (π,ρ)40↑e17 + 5 (π,ρ)41↑e17
                         + 5 (π,ρ)42↑e17 + 5 (π,ρ)43↑e17
                         + 5 (π,ρ)45↑e17 + 4 (π,ρ)46↑e17
                         + 2 (π,ρ)65↑e21 + 2 (π,ρ)66↑e21
                         + 2 (π,ρ)67↑e21 + 2 (π,ρ)77↑e21
                         + 2 (π,ρ)78↑e21 + 2 (π,ρ)79↑e21
                         <= 0
 BwCapConstr_slink31#37: 5 (π,ρ)36↑e17 + 5 (π,ρ)37↑e17
                         + 5 (π,ρ)38↑e17 + 5 (π,ρ)39↑e17
                         + (π,ρ)50↑e20 + (π,ρ)51↑e20
                         + (π,ρ)52↑e20 + (π,ρ)53↑e20
                         + (π,ρ)54↑e20 + (π,ρ)55↑e20
                         + (π,ρ)59↑e20 + (π,ρ)60↑e20
                         + (π,ρ)61↑e20 + (π,ρ)62↑e20
                         + (π,ρ)87↑e22 + (π,ρ)88↑e22
                         + (π,ρ)89↑e22 <= 0
 BwCapConstr_slink32#38: 5 (π,ρ)33↑e17 + 5 (π,ρ)34↑e17
                         + 5 (π,ρ)35↑e17 + 5 (π,ρ)36↑e17
                         + 5 (π,ρ)37↑e17 + 5 (π,ρ)38↑e17
                         + 2 (π,ρ)39↑e17 + 4 (π,ρ)40↑e17
                         + 5 (π,ρ)42↑e17 + 5 (π,ρ)43↑e17
                         + 5 (π,ρ)44↑e17 + (π,ρ)50↑e20
                         + (π,ρ)51↑e20 + (π,ρ)52↑e20
                         + (π,ρ)56↑e20 + (π,ρ)57↑e20
                         + (π,ρ)58↑e20 + 2 (π,ρ)69↑e21
                         + 2 (π,ρ)72↑e21 + 2 (π,ρ)75↑e21
                         + (π,ρ)80↑e22 + (π,ρ)81↑e22
                         + (π,ρ)87↑e22 + (π,ρ)88↑e22
                         + (π,ρ)89↑e22 + (π,ρ)90↑e22
                         + (π,ρ)91↑e22 + (π,ρ)92↑e22
                         <= 12
 BwCapConstr_slink33#39: (π,ρ)53↑e20 + (π,ρ)54↑e20
                         + (π,ρ)55↑e20 + 2 (π,ρ)73↑e21
                         + 2 (π,ρ)77↑e21 + 2 (π,ρ)78↑e21
                         + 2 (π,ρ)79↑e21 + (π,ρ)90↑e22
                         + (π,ρ)91↑e22 + (π,ρ)92↑e22 <= 7
 BwCapConstr_slink34#40: 3 (π,ρ)49↑e19 + (π,ρ)63↑e20
                         + (π,ρ)65↑e21 + (π,ρ)66↑e21
                         + (π,ρ)67↑e21 + 2 (π,ρ)73↑e21
                         + 4 (π,ρ)77↑e21 + 4 (π,ρ)78↑e21
                         + 4 (π,ρ)79↑e21 + (π,ρ)80↑e22
                         + (π,ρ)81↑e22 + (π,ρ)82↑e22
                         + (π,ρ)83↑e22 + (π,ρ)84↑e22
                         + (π,ρ)85↑e22 + (π,ρ)86↑e22
                         + (π,ρ)87↑e22 + (π,ρ)89↑e22
                         + (π,ρ)90↑e22 + (π,ρ)91↑e22
                         + (π,ρ)92↑e22 <= 1
 BwCapConstr_slink35#41: (π,ρ)56↑e20 + (π,ρ)57↑e20
                         + (π,ρ)58↑e20 + 2 (π,ρ)65↑e21
                         + 2 (π,ρ)66↑e21 + 2 (π,ρ)67↑e21
                         + 2 (π,ρ)71↑e21 + 2 (π,ρ)72↑e21
                         + 2 (π,ρ)73↑e21 + (π,ρ)80↑e22
                         + (π,ρ)81↑e22 + (π,ρ)85↑e22
                         + (π,ρ)86↑e22 + (π,ρ)88↑e22 <= 0
 BwCapConstr_slink36#42: 5 (π,ρ)49↑e19 + (π,ρ)50↑e20
                         + (π,ρ)55↑e20 + (π,ρ)56↑e20
                         + (π,ρ)57↑e20 + (π,ρ)58↑e20
                         + (π,ρ)61↑e20 + 2 (π,ρ)68↑e21
                         + 2 (π,ρ)69↑e21 + 2 (π,ρ)70↑e21
                         + 2 (π,ρ)74↑e21 + 2 (π,ρ)75↑e21
                         + 2 (π,ρ)76↑e21 + (π,ρ)82↑e22
                         + (π,ρ)83↑e22 + (π,ρ)84↑e22
                         + (π,ρ)87↑e22 + (π,ρ)88↑e22
                         + (π,ρ)89↑e22 + (π,ρ)90↑e22
                         + (π,ρ)91↑e22 + (π,ρ)92↑e22 <= 0
 BwCapConstr_slink37#43: 5 (π,ρ)40↑e17
                         + 100000 (π,ρ)49↑e19
                         + (π,ρ)52↑e20 + (π,ρ)58↑e20
                         + 2 (π,ρ)74↑e21 + 2 (π,ρ)75↑e21
                         + 2 (π,ρ)76↑e21 <= 11
Bounds
 0 <= vnp2 <= 1
 0 <= (π,ρ)0↑e7 <= 1
 0 <= (π,ρ)1↑e7 <= 1
 0 <= (π,ρ)2↑e7 <= 1
 0 <= (π,ρ)3↑e7 <= 1
 0 <= (π,ρ)4↑e7 <= 1
 0 <= (π,ρ)5↑e7 <= 1
 0 <= (π,ρ)6↑e7 <= 1
 0 <= (π,ρ)7↑e7 <= 1
 0 <= (π,ρ)8↑e7 <= 1
 0 <= (π,ρ)9↑e7 <= 1
 0 <= (π,ρ)10↑e7 <= 1
 0 <= (π,ρ)11↑e7 <= 1
 0 <= (π,ρ)12↑e7 <= 1
 0 <= (π,ρ)13↑e7 <= 1
 0 <= (π,ρ)14↑e7 <= 1
 0 <= (π,ρ)15↑e8 <= 1
 0 <= (π,ρ)16↑e9 <= 1
 0 <= (π,ρ)17↑e9 <= 1
 0 <= (π,ρ)18↑e9 <= 1
 0 <= (π,ρ)19↑e9 <= 1
 0 <= (π,ρ)20↑e9 <= 1
 0 <= (π,ρ)21↑e9 <= 1
 0 <= (π,ρ)22↑e9 <= 1
 0 <= (π,ρ)23↑e9 <= 1
 0 <= (π,ρ)24↑e9 <= 1
 0 <= (π,ρ)25↑e9 <= 1
 0 <= (π,ρ)26↑e9 <= 1
 0 <= (π,ρ)27↑e9 <= 1
 0 <= (π,ρ)28↑e9 <= 1
 0 <= (π,ρ)29↑e9 <= 1
 0 <= (π,ρ)30↑e9 <= 1
 0 <= (π,ρ)31↑e10 <= 1
 0 <= (π,ρ)32↑e11 <= 1
 0 <= vnp4 <= 1
 0 <= (π,ρ)33↑e17 <= 1
 0 <= (π,ρ)34↑e17 <= 1
 0 <= (π,ρ)35↑e17 <= 1
 0 <= (π,ρ)36↑e17 <= 1
 0 <= (π,ρ)37↑e17 <= 1
 0 <= (π,ρ)38↑e17 <= 1
 0 <= (π,ρ)39↑e17 <= 1
 0 <= (π,ρ)40↑e17 <= 1
 0 <= (π,ρ)41↑e17 <= 1
 0 <= (π,ρ)42↑e17 <= 1
 0 <= (π,ρ)43↑e17 <= 1
 0 <= (π,ρ)44↑e17 <= 1
 0 <= (π,ρ)45↑e17 <= 1
 0 <= (π,ρ)46↑e17 <= 1
 0 <= (π,ρ)47↑e17 <= 1
 0 <= (π,ρ)48↑e18 <= 1
 0 <= (π,ρ)49↑e19 <= 1
 0 <= (π,ρ)50↑e20 <= 1
 0 <= (π,ρ)51↑e20 <= 1
 0 <= (π,ρ)52↑e20 <= 1
 0 <= (π,ρ)53↑e20 <= 1
 0 <= (π,ρ)54↑e20 <= 1
 0 <= (π,ρ)55↑e20 <= 1
 0 <= (π,ρ)56↑e20 <= 1
 0 <= (π,ρ)57↑e20 <= 1
 0 <= (π,ρ)58↑e20 <= 1
 0 <= (π,ρ)59↑e20 <= 1
 0 <= (π,ρ)60↑e20 <= 1
 0 <= (π,ρ)61↑e20 <= 1
 0 <= (π,ρ)62↑e20 <= 1
 0 <= (π,ρ)63↑e20 <= 1
 0 <= (π,ρ)64↑e20 <= 1
 0 <= (π,ρ)65↑e21 <= 1
 0 <= (π,ρ)66↑e21 <= 1
 0 <= (π,ρ)67↑e21 <= 1
 0 <= (π,ρ)68↑e21 <= 1
 0 <= (π,ρ)69↑e21 <= 1
 0 <= (π,ρ)70↑e21 <= 1
 0 <= (π,ρ)71↑e21 <= 1
 0 <= (π,ρ)72↑e21 <= 1
 0 <= (π,ρ)73↑e21 <= 1
 0 <= (π,ρ)74↑e21 <= 1
 0 <= (π,ρ)75↑e21 <= 1
 0 <= (π,ρ)76↑e21 <= 1
 0 <= (π,ρ)77↑e21 <= 1
 0 <= (π,ρ)78↑e21 <= 1
 0 <= (π,ρ)79↑e21 <= 1
 0 <= (π,ρ)80↑e22 <= 1
 0 <= (π,ρ)81↑e22 <= 1
 0 <= (π,ρ)82↑e22 <= 1
 0 <= (π,ρ)83↑e22 <= 1
 0 <= (π,ρ)84↑e22 <= 1
 0 <= (π,ρ)85↑e22 <= 1
 0 <= (π,ρ)86↑e22 <= 1
 0 <= (π,ρ)87↑e22 <= 1
 0 <= (π,ρ)88↑e22 <= 1
 0 <= (π,ρ)89↑e22 <= 1
 0 <= (π,ρ)90↑e22 <= 1
 0 <= (π,ρ)91↑e22 <= 1
 0 <= (π,ρ)92↑e22 <= 1
Binaries
 vnp2  (π,ρ)0↑e7  (π,ρ)1↑e7  (π,ρ)2↑e7 
 (π,ρ)3↑e7  (π,ρ)4↑e7  (π,ρ)5↑e7 
 (π,ρ)6↑e7  (π,ρ)7↑e7  (π,ρ)8↑e7 
 (π,ρ)9↑e7  (π,ρ)10↑e7  (π,ρ)11↑e7 
 (π,ρ)12↑e7  (π,ρ)13↑e7  (π,ρ)14↑e7 
 (π,ρ)15↑e8  (π,ρ)16↑e9  (π,ρ)17↑e9 
 (π,ρ)18↑e9  (π,ρ)19↑e9  (π,ρ)20↑e9 
 (π,ρ)21↑e9  (π,ρ)22↑e9  (π,ρ)23↑e9 
 (π,ρ)24↑e9  (π,ρ)25↑e9  (π,ρ)26↑e9 
 (π,ρ)27↑e9  (π,ρ)28↑e9  (π,ρ)29↑e9 
 (π,ρ)30↑e9  (π,ρ)31↑e10  (π,ρ)32↑e11  vnp4 
 (π,ρ)33↑e17  (π,ρ)34↑e17  (π,ρ)35↑e17 
 (π,ρ)36↑e17  (π,ρ)37↑e17  (π,ρ)38↑e17 
 (π,ρ)39↑e17  (π,ρ)40↑e17  (π,ρ)41↑e17 
 (π,ρ)42↑e17  (π,ρ)43↑e17  (π,ρ)44↑e17 
 (π,ρ)45↑e17  (π,ρ)46↑e17  (π,ρ)47↑e17 
 (π,ρ)48↑e18  (π,ρ)49↑e19  (π,ρ)50↑e20 
 (π,ρ)51↑e20  (π,ρ)52↑e20  (π,ρ)53↑e20 
 (π,ρ)54↑e20  (π,ρ)55↑e20  (π,ρ)56↑e20 
 (π,ρ)57↑e20  (π,ρ)58↑e20  (π,ρ)59↑e20 
 (π,ρ)60↑e20  (π,ρ)61↑e20  (π,ρ)62↑e20 
 (π,ρ)63↑e20  (π,ρ)64↑e20  (π,ρ)65↑e21 
 (π,ρ)66↑e21  (π,ρ)67↑e21  (π,ρ)68↑e21 
 (π,ρ)69↑e21  (π,ρ)70↑e21  (π,ρ)71↑e21 
 (π,ρ)72↑e21  (π,ρ)73↑e21  (π,ρ)74↑e21 
 (π,ρ)75↑e21  (π,ρ)76↑e21  (π,ρ)77↑e21 
 (π,ρ)78↑e21  (π,ρ)79↑e21  (π,ρ)80↑e22 
 (π,ρ)81↑e22  (π,ρ)82↑e22  (π,ρ)83↑e22 
 (π,ρ)84↑e22  (π,ρ)85↑e22  (π,ρ)86↑e22 
 (π,ρ)87↑e22  (π,ρ)88↑e22  (π,ρ)89↑e22 
 (π,ρ)90↑e22  (π,ρ)91↑e22  (π,ρ)92↑e22 
End
